 C  O  H 
 1.0000000000000000
    13.0118987422634973    0.0000000000000000    0.0000000000000000
    -0.0000042334176845   13.0118987422634973    0.0000000000000000
     0.0003534903766566    0.0003429068324454   13.0092237514640985
 C   O   H  
   3   1   6
Cartesian
  6.1750371339296244  5.8325832771765000  4.0985648100566925
  5.3538408881970767  4.5298029608437993  4.0986187861321710
  5.3538430049059187  7.1353625351547771  4.0958707688777123
  7.4023525466182365  5.8325848647081298  4.1005778001656781
  4.3102415152315450  4.7660160257408659  4.0966481302000304
  5.5917923002308445  3.9581656292587364  3.2259732861025516
  5.5889183388002719  3.9600489709511328  4.9732725136758784
  4.7383411159827968  7.1671893693069295  3.2212022243721079
  4.7355555271463894  7.1690467813160064  4.9685019811226452
  6.0170629196144239  7.9750286530676346  4.0960353429901977
