 O  H 
 1.0000000000000000
    13.0118987422634973    0.0000000000000000    0.0000000000000000
    -0.0000042334176845   13.0118987422634973    0.0000000000000000
     0.0003534903766566    0.0003429068324454   13.0092237514640985
 O   H  
   1   2
Cartesian
  6.7128124158107090  5.8615049284426544  6.1988125368230476
  7.6728123730513627  5.8615049284426544  6.1988125368230476
  6.3923580432323517  6.7664408218608791  6.1988125368230476
